% Auto-generated by scripts/generate_dzn.py
% problem_type   = regex
% instance       = regex_96
% source_json    = instances_json/2_high_blowup/regex_96.json
% blowup         = 57.76
% representation = NFA

mode = 1;

var_count = 21;
n_constraints = 2;
Q = 14;
S = 2;
q0 = [1, 1];
F = [{14}, {11}];
weights = [3, 7, 10, 1, 9, 6, 2, 6, 5, 8, 7, 4, 7, 8, 6, 4, 4, 10, 5, 3, 1];
d_dfa = array3d(1..2, 1..14, 1..2, [
  % k = 1
    0, 0,
    0, 0,
    0, 0,
    0, 0,
    0, 0,
    0, 0,
    0, 0,
    0, 0,
    0, 0,
    0, 0,
    0, 0,
    0, 0,
    0, 0,
    0, 0,

  % k = 2
    0, 0,
    0, 0,
    0, 0,
    0, 0,
    0, 0,
    0, 0,
    0, 0,
    0, 0,
    0, 0,
    0, 0,
    0, 0,
    0, 0,
    0, 0,
    0, 0
]);
d_nfa = array3d(1..2, 1..14, 1..2, [
  % k = 1
    {1}, {1, 2},
    {}, {3},
    {4}, {4},
    {5}, {5},
    {6}, {6},
    {7}, {7},
    {8}, {8},
    {9}, {9},
    {10}, {10},
    {11}, {11},
    {12}, {12},
    {13}, {13},
    {14}, {14},
    {}, {},

  % k = 2
    {1}, {2},
    {2}, {3},
    {3}, {4},
    {4}, {5},
    {5}, {6},
    {6}, {7},
    {7}, {8},
    {8}, {9},
    {9}, {10},
    {10}, {11},
    {11}, {},
    {}, {},
    {}, {},
    {}, {}
]);
